NAME           C:\Bruker\Hvattum\knapsack\Problems\class4\100-10-22.mps
ROWS
 N  OBJ
 L  CONSTR1
 L  CONSTR2
 L  CONSTR3
 L  CONSTR4
 L  CONSTR5
 L  CONSTR6
 L  CONSTR7
 L  CONSTR8
 L  CONSTR9
 L  CONSTR10
COLUMNS
    INT0001   'MARKER'  'INTORG'
    X1        OBJ       887
    X1        CONSTR1   387
    X1        CONSTR2   539
    X1        CONSTR3   213
    X1        CONSTR4   867
    X1        CONSTR5   715
    X1        CONSTR6   221
    X1        CONSTR7   571
    X1        CONSTR8   389
    X1        CONSTR9   25
    X1        CONSTR10  619
    X2        OBJ       499
    X2        CONSTR1   969
    X2        CONSTR2   15
    X2        CONSTR3   317
    X2        CONSTR4   210
    X2        CONSTR5   457
    X2        CONSTR6   489
    X2        CONSTR7   11
    X2        CONSTR8   615
    X2        CONSTR9   766
    X2        CONSTR10  382
    X3        OBJ       417
    X3        CONSTR1   277
    X3        CONSTR2   100
    X3        CONSTR3   214
    X3        CONSTR4   509
    X3        CONSTR5   258
    X3        CONSTR6   472
    X3        CONSTR7   247
    X3        CONSTR8   558
    X3        CONSTR9   238
    X3        CONSTR10  175
    X4        OBJ       729
    X4        CONSTR1   755
    X4        CONSTR2   296
    X4        CONSTR3   185
    X4        CONSTR4   806
    X4        CONSTR5   441
    X4        CONSTR6   412
    X4        CONSTR7   517
    X4        CONSTR8   218
    X4        CONSTR9   306
    X4        CONSTR10  282
    X5        OBJ       644
    X5        CONSTR1   230
    X5        CONSTR2   401
    X5        CONSTR3   130
    X5        CONSTR4   540
    X5        CONSTR5   358
    X5        CONSTR6   473
    X5        CONSTR7   920
    X5        CONSTR8   490
    X5        CONSTR9   456
    X5        CONSTR10  750
    X6        OBJ       900
    X6        CONSTR1   405
    X6        CONSTR2   329
    X6        CONSTR3   169
    X6        CONSTR4   580
    X6        CONSTR5   793
    X6        CONSTR6   911
    X6        CONSTR7   435
    X6        CONSTR8   492
    X6        CONSTR9   87
    X6        CONSTR10  19
    X7        OBJ       881
    X7        CONSTR1   852
    X7        CONSTR2   953
    X7        CONSTR3   153
    X7        CONSTR4   449
    X7        CONSTR5   450
    X7        CONSTR6   173
    X7        CONSTR7   547
    X7        CONSTR8   6
    X7        CONSTR9   474
    X7        CONSTR10  122
    X8        OBJ       765
    X8        CONSTR1   653
    X8        CONSTR2   801
    X8        CONSTR3   205
    X8        CONSTR4   95
    X8        CONSTR5   570
    X8        CONSTR6   479
    X8        CONSTR7   276
    X8        CONSTR8   750
    X8        CONSTR9   518
    X8        CONSTR10  134
    X9        OBJ       571
    X9        CONSTR1   785
    X9        CONSTR2   232
    X9        CONSTR3   647
    X9        CONSTR4   733
    X9        CONSTR5   615
    X9        CONSTR6   103
    X9        CONSTR7   162
    X9        CONSTR8   367
    X9        CONSTR9   935
    X9        CONSTR10  368
    X10       OBJ       813
    X10       CONSTR1   852
    X10       CONSTR2   285
    X10       CONSTR3   420
    X10       CONSTR4   861
    X10       CONSTR5   446
    X10       CONSTR6   505
    X10       CONSTR7   507
    X10       CONSTR8   896
    X10       CONSTR9   252
    X10       CONSTR10  376
    X11       OBJ       473
    X11       CONSTR1   121
    X11       CONSTR2   668
    X11       CONSTR3   586
    X11       CONSTR4   362
    X11       CONSTR5   35
    X11       CONSTR6   883
    X11       CONSTR7   316
    X11       CONSTR8   263
    X11       CONSTR9   76
    X11       CONSTR10  312
    X12       OBJ       682
    X12       CONSTR1   866
    X12       CONSTR2   636
    X12       CONSTR3   53
    X12       CONSTR4   789
    X12       CONSTR5   150
    X12       CONSTR6   418
    X12       CONSTR7   660
    X12       CONSTR8   724
    X12       CONSTR9   337
    X12       CONSTR10  333
    X13       OBJ       697
    X13       CONSTR1   853
    X13       CONSTR2   341
    X13       CONSTR3   145
    X13       CONSTR4   397
    X13       CONSTR5   434
    X13       CONSTR6   504
    X13       CONSTR7   119
    X13       CONSTR8   397
    X13       CONSTR9   446
    X13       CONSTR10  798
    X14       OBJ       1103
    X14       CONSTR1   831
    X14       CONSTR2   969
    X14       CONSTR3   629
    X14       CONSTR4   863
    X14       CONSTR5   304
    X14       CONSTR6   283
    X14       CONSTR7   337
    X14       CONSTR8   852
    X14       CONSTR9   204
    X14       CONSTR10  907
    X15       OBJ       973
    X15       CONSTR1   566
    X15       CONSTR2   493
    X15       CONSTR3   831
    X15       CONSTR4   208
    X15       CONSTR5   879
    X15       CONSTR6   440
    X15       CONSTR7   957
    X15       CONSTR8   914
    X15       CONSTR9   723
    X15       CONSTR10  592
    X16       OBJ       841
    X16       CONSTR1   641
    X16       CONSTR2   128
    X16       CONSTR3   766
    X16       CONSTR4   249
    X16       CONSTR5   299
    X16       CONSTR6   236
    X16       CONSTR7   787
    X16       CONSTR8   708
    X16       CONSTR9   831
    X16       CONSTR10  742
    X17       OBJ       733
    X17       CONSTR1   918
    X17       CONSTR2   235
    X17       CONSTR3   140
    X17       CONSTR4   248
    X17       CONSTR5   974
    X17       CONSTR6   321
    X17       CONSTR7   232
    X17       CONSTR8   323
    X17       CONSTR9   478
    X17       CONSTR10  895
    X18       OBJ       759
    X18       CONSTR1   771
    X18       CONSTR2   274
    X18       CONSTR3   892
    X18       CONSTR4   946
    X18       CONSTR5   844
    X18       CONSTR6   106
    X18       CONSTR7   714
    X18       CONSTR8   549
    X18       CONSTR9   233
    X18       CONSTR10  949
    X19       OBJ       620
    X19       CONSTR1   258
    X19       CONSTR2   129
    X19       CONSTR3   102
    X19       CONSTR4   566
    X19       CONSTR5   147
    X19       CONSTR6   780
    X19       CONSTR7   341
    X19       CONSTR8   30
    X19       CONSTR9   453
    X19       CONSTR10  140
    X20       OBJ       704
    X20       CONSTR1   962
    X20       CONSTR2   404
    X20       CONSTR3   857
    X20       CONSTR4   551
    X20       CONSTR5   39
    X20       CONSTR6   876
    X20       CONSTR7   96
    X20       CONSTR8   521
    X20       CONSTR9   208
    X20       CONSTR10  884
    X21       OBJ       1015
    X21       CONSTR1   483
    X21       CONSTR2   852
    X21       CONSTR3   722
    X21       CONSTR4   410
    X21       CONSTR5   117
    X21       CONSTR6   687
    X21       CONSTR7   760
    X21       CONSTR8   920
    X21       CONSTR9   12
    X21       CONSTR10  666
    X22       OBJ       778
    X22       CONSTR1   298
    X22       CONSTR2   812
    X22       CONSTR3   246
    X22       CONSTR4   302
    X22       CONSTR5   602
    X22       CONSTR6   752
    X22       CONSTR7   132
    X22       CONSTR8   844
    X22       CONSTR9   892
    X22       CONSTR10  841
    X23       OBJ       1036
    X23       CONSTR1   409
    X23       CONSTR2   621
    X23       CONSTR3   784
    X23       CONSTR4   699
    X23       CONSTR5   140
    X23       CONSTR6   787
    X23       CONSTR7   711
    X23       CONSTR8   373
    X23       CONSTR9   923
    X23       CONSTR10  950
    X24       OBJ       695
    X24       CONSTR1   352
    X24       CONSTR2   645
    X24       CONSTR3   16
    X24       CONSTR4   989
    X24       CONSTR5   598
    X24       CONSTR6   708
    X24       CONSTR7   587
    X24       CONSTR8   192
    X24       CONSTR9   274
    X24       CONSTR10  763
    X25       OBJ       468
    X25       CONSTR1   765
    X25       CONSTR2   800
    X25       CONSTR3   412
    X25       CONSTR4   259
    X25       CONSTR5   308
    X25       CONSTR6   285
    X25       CONSTR7   45
    X25       CONSTR8   560
    X25       CONSTR9   832
    X25       CONSTR10  167
    X26       OBJ       451
    X26       CONSTR1   990
    X26       CONSTR2   651
    X26       CONSTR3   249
    X26       CONSTR4   323
    X26       CONSTR5   429
    X26       CONSTR6   145
    X26       CONSTR7   580
    X26       CONSTR8   207
    X26       CONSTR9   486
    X26       CONSTR10  362
    X27       OBJ       522
    X27       CONSTR1   699
    X27       CONSTR2   21
    X27       CONSTR3   394
    X27       CONSTR4   325
    X27       CONSTR5   22
    X27       CONSTR6   896
    X27       CONSTR7   95
    X27       CONSTR8   671
    X27       CONSTR9   707
    X27       CONSTR10  523
    X28       OBJ       724
    X28       CONSTR1   878
    X28       CONSTR2   507
    X28       CONSTR3   597
    X28       CONSTR4   769
    X28       CONSTR5   344
    X28       CONSTR6   724
    X28       CONSTR7   590
    X28       CONSTR8   822
    X28       CONSTR9   25
    X28       CONSTR10  649
    X29       OBJ       581
    X29       CONSTR1   801
    X29       CONSTR2   966
    X29       CONSTR3   802
    X29       CONSTR4   716
    X29       CONSTR5   801
    X29       CONSTR6   533
    X29       CONSTR7   25
    X29       CONSTR8   958
    X29       CONSTR9   124
    X29       CONSTR10  18
    X30       OBJ       521
    X30       CONSTR1   83
    X30       CONSTR2   829
    X30       CONSTR3   467
    X30       CONSTR4   760
    X30       CONSTR5   876
    X30       CONSTR6   137
    X30       CONSTR7   614
    X30       CONSTR8   214
    X30       CONSTR9   15
    X30       CONSTR10  362
    X31       OBJ       951
    X31       CONSTR1   949
    X31       CONSTR2   791
    X31       CONSTR3   967
    X31       CONSTR4   469
    X31       CONSTR5   56
    X31       CONSTR6   91
    X31       CONSTR7   272
    X31       CONSTR8   352
    X31       CONSTR9   385
    X31       CONSTR10  310
    X32       OBJ       502
    X32       CONSTR1   586
    X32       CONSTR2   199
    X32       CONSTR3   254
    X32       CONSTR4   165
    X32       CONSTR5   68
    X32       CONSTR6   427
    X32       CONSTR7   47
    X32       CONSTR8   612
    X32       CONSTR9   904
    X32       CONSTR10  348
    X33       OBJ       1022
    X33       CONSTR1   46
    X33       CONSTR2   874
    X33       CONSTR3   66
    X33       CONSTR4   981
    X33       CONSTR5   984
    X33       CONSTR6   504
    X33       CONSTR7   437
    X33       CONSTR8   885
    X33       CONSTR9   917
    X33       CONSTR10  199
    X34       OBJ       604
    X34       CONSTR1   506
    X34       CONSTR2   404
    X34       CONSTR3   11
    X34       CONSTR4   317
    X34       CONSTR5   923
    X34       CONSTR6   305
    X34       CONSTR7   921
    X34       CONSTR8   365
    X34       CONSTR9   335
    X34       CONSTR10  282
    X35       OBJ       622
    X35       CONSTR1   178
    X35       CONSTR2   883
    X35       CONSTR3   656
    X35       CONSTR4   848
    X35       CONSTR5   794
    X35       CONSTR6   262
    X35       CONSTR7   174
    X35       CONSTR8   474
    X35       CONSTR9   717
    X35       CONSTR10  739
    X36       OBJ       756
    X36       CONSTR1   563
    X36       CONSTR2   284
    X36       CONSTR3   458
    X36       CONSTR4   500
    X36       CONSTR5   87
    X36       CONSTR6   214
    X36       CONSTR7   347
    X36       CONSTR8   907
    X36       CONSTR9   580
    X36       CONSTR10  63
    X37       OBJ       804
    X37       CONSTR1   141
    X37       CONSTR2   660
    X37       CONSTR3   105
    X37       CONSTR4   685
    X37       CONSTR5   396
    X37       CONSTR6   885
    X37       CONSTR7   778
    X37       CONSTR8   903
    X37       CONSTR9   52
    X37       CONSTR10  153
    X38       OBJ       596
    X38       CONSTR1   668
    X38       CONSTR2   764
    X38       CONSTR3   628
    X38       CONSTR4   202
    X38       CONSTR5   872
    X38       CONSTR6   590
    X38       CONSTR7   14
    X38       CONSTR8   173
    X38       CONSTR9   29
    X38       CONSTR10  516
    X39       OBJ       674
    X39       CONSTR1   464
    X39       CONSTR2   535
    X39       CONSTR3   502
    X39       CONSTR4   738
    X39       CONSTR5   58
    X39       CONSTR6   955
    X39       CONSTR7   662
    X39       CONSTR8   723
    X39       CONSTR9   379
    X39       CONSTR10  143
    X40       OBJ       570
    X40       CONSTR1   444
    X40       CONSTR2   568
    X40       CONSTR3   107
    X40       CONSTR4   313
    X40       CONSTR5   330
    X40       CONSTR6   647
    X40       CONSTR7   626
    X40       CONSTR8   959
    X40       CONSTR9   758
    X40       CONSTR10  461
    X41       OBJ       742
    X41       CONSTR1   27
    X41       CONSTR2   525
    X41       CONSTR3   381
    X41       CONSTR4   174
    X41       CONSTR5   301
    X41       CONSTR6   739
    X41       CONSTR7   111
    X41       CONSTR8   970
    X41       CONSTR9   121
    X41       CONSTR10  920
    X42       OBJ       403
    X42       CONSTR1   157
    X42       CONSTR2   369
    X42       CONSTR3   485
    X42       CONSTR4   307
    X42       CONSTR5   687
    X42       CONSTR6   192
    X42       CONSTR7   635
    X42       CONSTR8   145
    X42       CONSTR9   915
    X42       CONSTR10  73
    X43       OBJ       745
    X43       CONSTR1   394
    X43       CONSTR2   436
    X43       CONSTR3   885
    X43       CONSTR4   955
    X43       CONSTR5   513
    X43       CONSTR6   702
    X43       CONSTR7   735
    X43       CONSTR8   228
    X43       CONSTR9   309
    X43       CONSTR10  178
    X44       OBJ       1178
    X44       CONSTR1   734
    X44       CONSTR2   489
    X44       CONSTR3   905
    X44       CONSTR4   612
    X44       CONSTR5   983
    X44       CONSTR6   700
    X44       CONSTR7   740
    X44       CONSTR8   438
    X44       CONSTR9   524
    X44       CONSTR10  897
    X45       OBJ       725
    X45       CONSTR1   896
    X45       CONSTR2   271
    X45       CONSTR3   150
    X45       CONSTR4   678
    X45       CONSTR5   775
    X45       CONSTR6   134
    X45       CONSTR7   466
    X45       CONSTR8   837
    X45       CONSTR9   11
    X45       CONSTR10  726
    X46       OBJ       540
    X46       CONSTR1   268
    X46       CONSTR2   838
    X46       CONSTR3   306
    X46       CONSTR4   762
    X46       CONSTR5   69
    X46       CONSTR6   803
    X46       CONSTR7   380
    X46       CONSTR8   744
    X46       CONSTR9   437
    X46       CONSTR10  108
    X47       OBJ       627
    X47       CONSTR1   409
    X47       CONSTR2   994
    X47       CONSTR3   129
    X47       CONSTR4   158
    X47       CONSTR5   992
    X47       CONSTR6   193
    X47       CONSTR7   183
    X47       CONSTR8   959
    X47       CONSTR9   448
    X47       CONSTR10  978
    X48       OBJ       957
    X48       CONSTR1   919
    X48       CONSTR2   792
    X48       CONSTR3   251
    X48       CONSTR4   723
    X48       CONSTR5   817
    X48       CONSTR6   236
    X48       CONSTR7   791
    X48       CONSTR8   221
    X48       CONSTR9   60
    X48       CONSTR10  731
    X49       OBJ       926
    X49       CONSTR1   477
    X49       CONSTR2   172
    X49       CONSTR3   928
    X49       CONSTR4   662
    X49       CONSTR5   252
    X49       CONSTR6   355
    X49       CONSTR7   759
    X49       CONSTR8   534
    X49       CONSTR9   866
    X49       CONSTR10  816
    X50       OBJ       690
    X50       CONSTR1   876
    X50       CONSTR2   661
    X50       CONSTR3   152
    X50       CONSTR4   747
    X50       CONSTR5   540
    X50       CONSTR6   352
    X50       CONSTR7   741
    X50       CONSTR8   751
    X50       CONSTR9   502
    X50       CONSTR10  931
    X51       OBJ       887
    X51       CONSTR1   89
    X51       CONSTR2   868
    X51       CONSTR3   932
    X51       CONSTR4   46
    X51       CONSTR5   33
    X51       CONSTR6   19
    X51       CONSTR7   661
    X51       CONSTR8   854
    X51       CONSTR9   865
    X51       CONSTR10  718
    X52       OBJ       567
    X52       CONSTR1   29
    X52       CONSTR2   415
    X52       CONSTR3   828
    X52       CONSTR4   338
    X52       CONSTR5   654
    X52       CONSTR6   178
    X52       CONSTR7   510
    X52       CONSTR8   510
    X52       CONSTR9   464
    X52       CONSTR10  515
    X53       OBJ       933
    X53       CONSTR1   927
    X53       CONSTR2   187
    X53       CONSTR3   554
    X53       CONSTR4   664
    X53       CONSTR5   294
    X53       CONSTR6   28
    X53       CONSTR7   920
    X53       CONSTR8   865
    X53       CONSTR9   409
    X53       CONSTR10  132
    X54       OBJ       822
    X54       CONSTR1   636
    X54       CONSTR2   210
    X54       CONSTR3   195
    X54       CONSTR4   725
    X54       CONSTR5   147
    X54       CONSTR6   120
    X54       CONSTR7   495
    X54       CONSTR8   316
    X54       CONSTR9   65
    X54       CONSTR10  617
    X55       OBJ       803
    X55       CONSTR1   412
    X55       CONSTR2   675
    X55       CONSTR3   791
    X55       CONSTR4   456
    X55       CONSTR5   464
    X55       CONSTR6   552
    X55       CONSTR7   659
    X55       CONSTR8   219
    X55       CONSTR9   94
    X55       CONSTR10  296
    X56       OBJ       541
    X56       CONSTR1   17
    X56       CONSTR2   849
    X56       CONSTR3   134
    X56       CONSTR4   795
    X56       CONSTR5   6
    X56       CONSTR6   247
    X56       CONSTR7   696
    X56       CONSTR8   627
    X56       CONSTR9   192
    X56       CONSTR10  755
    X57       OBJ       629
    X57       CONSTR1   510
    X57       CONSTR2   905
    X57       CONSTR3   563
    X57       CONSTR4   243
    X57       CONSTR5   711
    X57       CONSTR6   211
    X57       CONSTR7   538
    X57       CONSTR8   904
    X57       CONSTR9   380
    X57       CONSTR10  143
    X58       OBJ       1111
    X58       CONSTR1   838
    X58       CONSTR2   854
    X58       CONSTR3   560
    X58       CONSTR4   486
    X58       CONSTR5   954
    X58       CONSTR6   477
    X58       CONSTR7   768
    X58       CONSTR8   747
    X58       CONSTR9   120
    X58       CONSTR10  661
    X59       OBJ       501
    X59       CONSTR1   721
    X59       CONSTR2   731
    X59       CONSTR3   389
    X59       CONSTR4   54
    X59       CONSTR5   30
    X59       CONSTR6   6
    X59       CONSTR7   183
    X59       CONSTR8   771
    X59       CONSTR9   700
    X59       CONSTR10  391
    X60       OBJ       907
    X60       CONSTR1   931
    X60       CONSTR2   518
    X60       CONSTR3   50
    X60       CONSTR4   588
    X60       CONSTR5   112
    X60       CONSTR6   809
    X60       CONSTR7   533
    X60       CONSTR8   474
    X60       CONSTR9   106
    X60       CONSTR10  670
    X61       OBJ       862
    X61       CONSTR1   476
    X61       CONSTR2   61
    X61       CONSTR3   466
    X61       CONSTR4   94
    X61       CONSTR5   748
    X61       CONSTR6   623
    X61       CONSTR7   836
    X61       CONSTR8   653
    X61       CONSTR9   382
    X61       CONSTR10  36
    X62       OBJ       534
    X62       CONSTR1   794
    X62       CONSTR2   260
    X62       CONSTR3   489
    X62       CONSTR4   260
    X62       CONSTR5   977
    X62       CONSTR6   321
    X62       CONSTR7   921
    X62       CONSTR8   257
    X62       CONSTR9   159
    X62       CONSTR10  560
    X63       OBJ       1097
    X63       CONSTR1   322
    X63       CONSTR2   792
    X63       CONSTR3   742
    X63       CONSTR4   225
    X63       CONSTR5   689
    X63       CONSTR6   397
    X63       CONSTR7   957
    X63       CONSTR8   785
    X63       CONSTR9   900
    X63       CONSTR10  191
    X64       OBJ       870
    X64       CONSTR1   545
    X64       CONSTR2   403
    X64       CONSTR3   283
    X64       CONSTR4   682
    X64       CONSTR5   249
    X64       CONSTR6   853
    X64       CONSTR7   681
    X64       CONSTR8   790
    X64       CONSTR9   938
    X64       CONSTR10  378
    X65       OBJ       637
    X65       CONSTR1   958
    X65       CONSTR2   834
    X65       CONSTR3   154
    X65       CONSTR4   486
    X65       CONSTR5   78
    X65       CONSTR6   743
    X65       CONSTR7   935
    X65       CONSTR8   152
    X65       CONSTR9   71
    X65       CONSTR10  987
    X66       OBJ       622
    X66       CONSTR1   592
    X66       CONSTR2   749
    X66       CONSTR3   444
    X66       CONSTR4   443
    X66       CONSTR5   990
    X66       CONSTR6   235
    X66       CONSTR7   534
    X66       CONSTR8   386
    X66       CONSTR9   981
    X66       CONSTR10  9
    X67       OBJ       1013
    X67       CONSTR1   889
    X67       CONSTR2   590
    X67       CONSTR3   528
    X67       CONSTR4   380
    X67       CONSTR5   229
    X67       CONSTR6   436
    X67       CONSTR7   775
    X67       CONSTR8   412
    X67       CONSTR9   549
    X67       CONSTR10  866
    X68       OBJ       641
    X68       CONSTR1   967
    X68       CONSTR2   123
    X68       CONSTR3   821
    X68       CONSTR4   161
    X68       CONSTR5   316
    X68       CONSTR6   574
    X68       CONSTR7   974
    X68       CONSTR8   633
    X68       CONSTR9   305
    X68       CONSTR10  198
    X69       OBJ       783
    X69       CONSTR1   524
    X69       CONSTR2   555
    X69       CONSTR3   911
    X69       CONSTR4   319
    X69       CONSTR5   766
    X69       CONSTR6   665
    X69       CONSTR7   758
    X69       CONSTR8   729
    X69       CONSTR9   991
    X69       CONSTR10  327
    X70       OBJ       782
    X70       CONSTR1   184
    X70       CONSTR2   627
    X70       CONSTR3   954
    X70       CONSTR4   345
    X70       CONSTR5   432
    X70       CONSTR6   701
    X70       CONSTR7   327
    X70       CONSTR8   43
    X70       CONSTR9   472
    X70       CONSTR10  449
    X71       OBJ       783
    X71       CONSTR1   848
    X71       CONSTR2   595
    X71       CONSTR3   629
    X71       CONSTR4   848
    X71       CONSTR5   945
    X71       CONSTR6   852
    X71       CONSTR7   815
    X71       CONSTR8   256
    X71       CONSTR9   95
    X71       CONSTR10  155
    X72       OBJ       788
    X72       CONSTR1   885
    X72       CONSTR2   288
    X72       CONSTR3   129
    X72       CONSTR4   545
    X72       CONSTR5   424
    X72       CONSTR6   723
    X72       CONSTR7   220
    X72       CONSTR8   451
    X72       CONSTR9   567
    X72       CONSTR10  876
    X73       OBJ       901
    X73       CONSTR1   184
    X73       CONSTR2   584
    X73       CONSTR3   916
    X73       CONSTR4   588
    X73       CONSTR5   739
    X73       CONSTR6   880
    X73       CONSTR7   274
    X73       CONSTR8   85
    X73       CONSTR9   334
    X73       CONSTR10  142
    X74       OBJ       1076
    X74       CONSTR1   249
    X74       CONSTR2   760
    X74       CONSTR3   968
    X74       CONSTR4   498
    X74       CONSTR5   831
    X74       CONSTR6   206
    X74       CONSTR7   577
    X74       CONSTR8   926
    X74       CONSTR9   61
    X74       CONSTR10  789
    X75       OBJ       659
    X75       CONSTR1   346
    X75       CONSTR2   870
    X75       CONSTR3   149
    X75       CONSTR4   795
    X75       CONSTR5   233
    X75       CONSTR6   414
    X75       CONSTR7   890
    X75       CONSTR8   22
    X75       CONSTR9   820
    X75       CONSTR10  694
    X76       OBJ       890
    X76       CONSTR1   203
    X76       CONSTR2   15
    X76       CONSTR3   757
    X76       CONSTR4   944
    X76       CONSTR5   620
    X76       CONSTR6   370
    X76       CONSTR7   720
    X76       CONSTR8   873
    X76       CONSTR9   713
    X76       CONSTR10  390
    X77       OBJ       689
    X77       CONSTR1   137
    X77       CONSTR2   427
    X77       CONSTR3   727
    X77       CONSTR4   207
    X77       CONSTR5   966
    X77       CONSTR6   889
    X77       CONSTR7   988
    X77       CONSTR8   441
    X77       CONSTR9   807
    X77       CONSTR10  695
    X78       OBJ       869
    X78       CONSTR1   811
    X78       CONSTR2   996
    X78       CONSTR3   280
    X78       CONSTR4   548
    X78       CONSTR5   647
    X78       CONSTR6   504
    X78       CONSTR7   812
    X78       CONSTR8   448
    X78       CONSTR9   794
    X78       CONSTR10  118
    X79       OBJ       820
    X79       CONSTR1   645
    X79       CONSTR2   59
    X79       CONSTR3   946
    X79       CONSTR4   399
    X79       CONSTR5   391
    X79       CONSTR6   290
    X79       CONSTR7   93
    X79       CONSTR8   954
    X79       CONSTR9   951
    X79       CONSTR10  73
    X80       OBJ       849
    X80       CONSTR1   126
    X80       CONSTR2   759
    X80       CONSTR3   357
    X80       CONSTR4   450
    X80       CONSTR5   499
    X80       CONSTR6   303
    X80       CONSTR7   765
    X80       CONSTR8   662
    X80       CONSTR9   816
    X80       CONSTR10  815
    X81       OBJ       807
    X81       CONSTR1   564
    X81       CONSTR2   544
    X81       CONSTR3   643
    X81       CONSTR4   303
    X81       CONSTR5   448
    X81       CONSTR6   261
    X81       CONSTR7   232
    X81       CONSTR8   495
    X81       CONSTR9   343
    X81       CONSTR10  45
    X82       OBJ       851
    X82       CONSTR1   118
    X82       CONSTR2   561
    X82       CONSTR3   724
    X82       CONSTR4   907
    X82       CONSTR5   457
    X82       CONSTR6   970
    X82       CONSTR7   346
    X82       CONSTR8   76
    X82       CONSTR9   116
    X82       CONSTR10  322
    X83       OBJ       445
    X83       CONSTR1   237
    X83       CONSTR2   6
    X83       CONSTR3   325
    X83       CONSTR4   580
    X83       CONSTR5   329
    X83       CONSTR6   406
    X83       CONSTR7   596
    X83       CONSTR8   888
    X83       CONSTR9   290
    X83       CONSTR10  528
    X84       OBJ       553
    X84       CONSTR1   719
    X84       CONSTR2   328
    X84       CONSTR3   284
    X84       CONSTR4   768
    X84       CONSTR5   288
    X84       CONSTR6   938
    X84       CONSTR7   332
    X84       CONSTR8   563
    X84       CONSTR9   631
    X84       CONSTR10  96
    X85       OBJ       594
    X85       CONSTR1   703
    X85       CONSTR2   472
    X85       CONSTR3   252
    X85       CONSTR4   276
    X85       CONSTR5   536
    X85       CONSTR6   677
    X85       CONSTR7   151
    X85       CONSTR8   827
    X85       CONSTR9   834
    X85       CONSTR10  853
    X86       OBJ       584
    X86       CONSTR1   526
    X86       CONSTR2   551
    X86       CONSTR3   944
    X86       CONSTR4   690
    X86       CONSTR5   640
    X86       CONSTR6   579
    X86       CONSTR7   501
    X86       CONSTR8   182
    X86       CONSTR9   991
    X86       CONSTR10  177
    X87       OBJ       574
    X87       CONSTR1   231
    X87       CONSTR2   483
    X87       CONSTR3   388
    X87       CONSTR4   837
    X87       CONSTR5   936
    X87       CONSTR6   283
    X87       CONSTR7   319
    X87       CONSTR8   838
    X87       CONSTR9   849
    X87       CONSTR10  211
    X88       OBJ       441
    X88       CONSTR1   496
    X88       CONSTR2   555
    X88       CONSTR3   241
    X88       CONSTR4   124
    X88       CONSTR5   224
    X88       CONSTR6   227
    X88       CONSTR7   805
    X88       CONSTR8   110
    X88       CONSTR9   851
    X88       CONSTR10  199
    X89       OBJ       416
    X89       CONSTR1   645
    X89       CONSTR2   12
    X89       CONSTR3   160
    X89       CONSTR4   980
    X89       CONSTR5   734
    X89       CONSTR6   22
    X89       CONSTR7   321
    X89       CONSTR8   332
    X89       CONSTR9   832
    X89       CONSTR10  1
    X90       OBJ       656
    X90       CONSTR1   5
    X90       CONSTR2   350
    X90       CONSTR3   940
    X90       CONSTR4   766
    X90       CONSTR5   524
    X90       CONSTR6   635
    X90       CONSTR7   69
    X90       CONSTR8   511
    X90       CONSTR9   369
    X90       CONSTR10  71
    X91       OBJ       769
    X91       CONSTR1   146
    X91       CONSTR2   407
    X91       CONSTR3   680
    X91       CONSTR4   3
    X91       CONSTR5   813
    X91       CONSTR6   942
    X91       CONSTR7   260
    X91       CONSTR8   879
    X91       CONSTR9   696
    X91       CONSTR10  553
    X92       OBJ       771
    X92       CONSTR1   54
    X92       CONSTR2   797
    X92       CONSTR3   546
    X92       CONSTR4   504
    X92       CONSTR5   906
    X92       CONSTR6   998
    X92       CONSTR7   443
    X92       CONSTR8   595
    X92       CONSTR9   240
    X92       CONSTR10  375
    X93       OBJ       735
    X93       CONSTR1   553
    X93       CONSTR2   34
    X93       CONSTR3   602
    X93       CONSTR4   747
    X93       CONSTR5   430
    X93       CONSTR6   689
    X93       CONSTR7   980
    X93       CONSTR8   779
    X93       CONSTR9   513
    X93       CONSTR10  530
    X94       OBJ       730
    X94       CONSTR1   655
    X94       CONSTR2   496
    X94       CONSTR3   692
    X94       CONSTR4   35
    X94       CONSTR5   448
    X94       CONSTR6   850
    X94       CONSTR7   284
    X94       CONSTR8   724
    X94       CONSTR9   877
    X94       CONSTR10  532
    X95       OBJ       607
    X95       CONSTR1   877
    X95       CONSTR2   753
    X95       CONSTR3   111
    X95       CONSTR4   716
    X95       CONSTR5   796
    X95       CONSTR6   596
    X95       CONSTR7   610
    X95       CONSTR8   877
    X95       CONSTR9   325
    X95       CONSTR10  97
    X96       OBJ       906
    X96       CONSTR1   988
    X96       CONSTR2   954
    X96       CONSTR3   633
    X96       CONSTR4   289
    X96       CONSTR5   807
    X96       CONSTR6   414
    X96       CONSTR7   681
    X96       CONSTR8   869
    X96       CONSTR9   983
    X96       CONSTR10  747
    X97       OBJ       818
    X97       CONSTR1   59
    X97       CONSTR2   482
    X97       CONSTR3   822
    X97       CONSTR4   69
    X97       CONSTR5   485
    X97       CONSTR6   826
    X97       CONSTR7   503
    X97       CONSTR8   549
    X97       CONSTR9   990
    X97       CONSTR10  392
    X98       OBJ       986
    X98       CONSTR1   732
    X98       CONSTR2   626
    X98       CONSTR3   824
    X98       CONSTR4   538
    X98       CONSTR5   611
    X98       CONSTR6   108
    X98       CONSTR7   818
    X98       CONSTR8   733
    X98       CONSTR9   569
    X98       CONSTR10  653
    X99       OBJ       553
    X99       CONSTR1   144
    X99       CONSTR2   645
    X99       CONSTR3   87
    X99       CONSTR4   873
    X99       CONSTR5   150
    X99       CONSTR6   146
    X99       CONSTR7   610
    X99       CONSTR8   180
    X99       CONSTR9   773
    X99       CONSTR10  901
    X100      OBJ       789
    X100      CONSTR1   573
    X100      CONSTR2   372
    X100      CONSTR3   425
    X100      CONSTR4   871
    X100      CONSTR5   168
    X100      CONSTR6   364
    X100      CONSTR7   903
    X100      CONSTR8   867
    X100      CONSTR9   489
    X100      CONSTR10  567
    INT0001   'MARKER'  'INTEND'
RHS
    RHS10001  CONSTR1   39924
    RHS10001  CONSTR2   39321
    RHS10001  CONSTR3   35729
    RHS10001  CONSTR4   38899
    RHS10001  CONSTR5   37385
    RHS10001  CONSTR6   36437
    RHS10001  CONSTR7   39217
    RHS10001  CONSTR8   42092
    RHS10001  CONSTR9   36935
    RHS10001  CONSTR10  34611
BOUNDS
 BV BND       X1        .00
 BV BND       X2        .00
 BV BND       X3        .00
 BV BND       X4        .00
 BV BND       X5        .00
 BV BND       X6        .00
 BV BND       X7        .00
 BV BND       X8        .00
 BV BND       X9        .00
 BV BND       X10       .00
 BV BND       X11       .00
 BV BND       X12       .00
 BV BND       X13       .00
 BV BND       X14       .00
 BV BND       X15       .00
 BV BND       X16       .00
 BV BND       X17       .00
 BV BND       X18       .00
 BV BND       X19       .00
 BV BND       X20       .00
 BV BND       X21       .00
 BV BND       X22       .00
 BV BND       X23       .00
 BV BND       X24       .00
 BV BND       X25       .00
 BV BND       X26       .00
 BV BND       X27       .00
 BV BND       X28       .00
 BV BND       X29       .00
 BV BND       X30       .00
 BV BND       X31       .00
 BV BND       X32       .00
 BV BND       X33       .00
 BV BND       X34       .00
 BV BND       X35       .00
 BV BND       X36       .00
 BV BND       X37       .00
 BV BND       X38       .00
 BV BND       X39       .00
 BV BND       X40       .00
 BV BND       X41       .00
 BV BND       X42       .00
 BV BND       X43       .00
 BV BND       X44       .00
 BV BND       X45       .00
 BV BND       X46       .00
 BV BND       X47       .00
 BV BND       X48       .00
 BV BND       X49       .00
 BV BND       X50       .00
 BV BND       X51       .00
 BV BND       X52       .00
 BV BND       X53       .00
 BV BND       X54       .00
 BV BND       X55       .00
 BV BND       X56       .00
 BV BND       X57       .00
 BV BND       X58       .00
 BV BND       X59       .00
 BV BND       X60       .00
 BV BND       X61       .00
 BV BND       X62       .00
 BV BND       X63       .00
 BV BND       X64       .00
 BV BND       X65       .00
 BV BND       X66       .00
 BV BND       X67       .00
 BV BND       X68       .00
 BV BND       X69       .00
 BV BND       X70       .00
 BV BND       X71       .00
 BV BND       X72       .00
 BV BND       X73       .00
 BV BND       X74       .00
 BV BND       X75       .00
 BV BND       X76       .00
 BV BND       X77       .00
 BV BND       X78       .00
 BV BND       X79       .00
 BV BND       X80       .00
 BV BND       X81       .00
 BV BND       X82       .00
 BV BND       X83       .00
 BV BND       X84       .00
 BV BND       X85       .00
 BV BND       X86       .00
 BV BND       X87       .00
 BV BND       X88       .00
 BV BND       X89       .00
 BV BND       X90       .00
 BV BND       X91       .00
 BV BND       X92       .00
 BV BND       X93       .00
 BV BND       X94       .00
 BV BND       X95       .00
 BV BND       X96       .00
 BV BND       X97       .00
 BV BND       X98       .00
 BV BND       X99       .00
 BV BND       X100      .00
ENDATA
